n=10;
m=45;
E=[|9,10
|4,9
|9,1
|6,4
|10,6
|8,7
|1,5
|8,9
|2,7
|3,2
|4,6
|9,2
|9,8
|9,2
|1,6
|5,2
|6,5
|8,7
|1,10
|3,5
|6,9
|9,8
|6,2
|2,6
|6,8
|5,4
|1,3
|3,8
|1,6
|1,2
|5,2
|3,5
|9,1
|7,1
|5,2
|6,2
|9,8
|1,10
|2,8
|9,8
|5,1
|1,5
|4,1
|9,3
|8,3
|];

